20180712 40 0 0 0
20170717 18 0 0 0
20160629 18 0 0 0
20150716 16 0 0 0
20140626 15 0 0 0
20130529 80 0 0 0
20120718 50 0 0 0
20110518 120 10000 0 0
20091021 300 0 0 0
20090603 550 5000 0 0
20080528 20 0 0 0
